
Gurobi 11.0.0 (win64) logging started Sat Jun 15 09:42:48 2024

Set parameter LogFile to value "./GurobiLog/stage_1_iter_2.log"
Gurobi Optimizer version 11.0.0 build v11.0.0rc2 (win64 - Windows 10.0 (18363.2))

CPU model: Intel(R) Core(TM) i7-8700 CPU @ 3.20GHz, instruction set [SSE2|AVX|AVX2]
Thread count: 6 physical cores, 12 logical processors, using up to 1 threads

Optimize a model with 1483 rows, 20452 columns and 31666 nonzeros
Coefficient statistics:
  Matrix range     [1e-02, 7e+03]
  Objective range  [1e-01, 2e+05]
  Bounds range     [1e+01, 6e+05]
  RHS range        [1e+00, 4e+04]
LP warm-start: use basis
Iteration    Objective       Primal Inf.    Dual Inf.      Time
       0    1.9595118e+04   5.758280e+03   0.000000e+00      0s
      52    3.5450338e+04   0.000000e+00   0.000000e+00      0s

Solved in 52 iterations and 0.01 seconds (0.00 work units)
Optimal objective  3.545033833e+04

Gurobi 11.0.0 (win64) logging started Sat Jun 15 10:41:11 2024

Set parameter LogFile to value "./GurobiLog/stage_1_iter_2.log"
Gurobi Optimizer version 11.0.0 build v11.0.0rc2 (win64 - Windows 10.0 (18363.2))

CPU model: Intel(R) Core(TM) i7-8700 CPU @ 3.20GHz, instruction set [SSE2|AVX|AVX2]
Thread count: 6 physical cores, 12 logical processors, using up to 1 threads

Optimize a model with 1483 rows, 20452 columns and 31171 nonzeros
Coefficient statistics:
  Matrix range     [1e-01, 6e+03]
  Objective range  [1e-01, 2e+05]
  Bounds range     [2e-12, 3e+05]
  RHS range        [1e+00, 3e+04]
LP warm-start: use basis
Iteration    Objective       Primal Inf.    Dual Inf.      Time
       0    1.7592050e+04   1.528121e+04   0.000000e+00      0s
     307    4.5078233e+04   0.000000e+00   0.000000e+00      0s

Solved in 307 iterations and 0.01 seconds (0.02 work units)
Optimal objective  4.507823259e+04
Warning for adding constraints: zero or small (< 1e-13) coefficients, ignored

Gurobi 11.0.0 (win64) logging started Sat Jun 15 10:59:59 2024

Set parameter LogFile to value "./GurobiLog/stage_1_iter_2.log"
Gurobi Optimizer version 11.0.0 build v11.0.0rc2 (win64 - Windows 10.0 (18363.2))

CPU model: Intel(R) Core(TM) i7-8700 CPU @ 3.20GHz, instruction set [SSE2|AVX|AVX2]
Thread count: 6 physical cores, 12 logical processors, using up to 1 threads

Optimize a model with 1483 rows, 20452 columns and 31519 nonzeros
Coefficient statistics:
  Matrix range     [5e-03, 7e+03]
  Objective range  [1e-01, 2e+05]
  Bounds range     [1e+01, 6e+05]
  RHS range        [1e+00, 4e+04]
LP warm-start: use basis
Iteration    Objective       Primal Inf.    Dual Inf.      Time
       0    2.1829637e+04   1.734038e+04   0.000000e+00      0s
      70    3.3215093e+04   0.000000e+00   0.000000e+00      0s

Solved in 70 iterations and 0.01 seconds (0.00 work units)
Optimal objective  3.321509333e+04

Gurobi 11.0.0 (win64) logging started Sat Jun 15 13:18:30 2024

Set parameter LogFile to value "./GurobiLog/stage_1_iter_2.log"
Gurobi Optimizer version 11.0.0 build v11.0.0rc2 (win64 - Windows 10.0 (18363.2))

CPU model: Intel(R) Core(TM) i7-8700 CPU @ 3.20GHz, instruction set [SSE2|AVX|AVX2]
Thread count: 6 physical cores, 12 logical processors, using up to 1 threads

Optimize a model with 1658 rows, 16406 columns and 64957 nonzeros
Coefficient statistics:
  Matrix range     [5e-03, 2e+05]
  Objective range  [1e-01, 2e+05]
  Bounds range     [3e-13, 1e+04]
  RHS range        [3e-01, 3e+04]
LP warm-start: use basis
Iteration    Objective       Primal Inf.    Dual Inf.      Time
       0    6.4204030e+04   2.395647e+04   0.000000e+00      0s
     131    6.4575585e+04   0.000000e+00   0.000000e+00      0s

Solved in 131 iterations and 0.02 seconds (0.02 work units)
Optimal objective  6.457558514e+04

Gurobi 11.0.0 (win64) logging started Sat Jun 15 13:52:09 2024

Set parameter LogFile to value "./GurobiLog/stage_1_iter_2.log"
Gurobi Optimizer version 11.0.0 build v11.0.0rc2 (win64 - Windows 10.0 (18363.2))

CPU model: Intel(R) Core(TM) i7-8700 CPU @ 3.20GHz, instruction set [SSE2|AVX|AVX2]
Thread count: 6 physical cores, 12 logical processors, using up to 1 threads

Optimize a model with 2018 rows, 27746 columns and 132589 nonzeros
Coefficient statistics:
  Matrix range     [1e-13, 2e+05]
  Objective range  [1e-01, 2e+05]
  Bounds range     [1e+01, 3e+06]
  RHS range        [3e-01, 9e+05]
Warning: Model contains large matrix coefficient range
         Consider reformulating model or setting NumericFocus parameter
         to avoid numerical issues.
LP warm-start: use basis
Iteration    Objective       Primal Inf.    Dual Inf.      Time
       0   -7.2375178e+07   1.927078e+08   0.000000e+00      0s
    3766    8.6134871e+05   0.000000e+00   0.000000e+00      0s

Solved in 3766 iterations and 0.43 seconds (0.92 work units)
Optimal objective  8.613487098e+05

Gurobi 11.0.0 (win64) logging started Tue Jul  2 10:31:25 2024

Set parameter LogFile to value "./GurobiLog/stage_1_iter_2.log"
Gurobi Optimizer version 11.0.0 build v11.0.0rc2 (win64 - Windows 10.0 (18363.2))

CPU model: Intel(R) Core(TM) i7-8700 CPU @ 3.20GHz, instruction set [SSE2|AVX|AVX2]
Thread count: 6 physical cores, 12 logical processors, using up to 1 threads

Optimize a model with 1943 rows, 27616 columns and 121188 nonzeros
Coefficient statistics:
  Matrix range     [1e-13, 2e+05]
  Objective range  [1e-03, 2e+05]
  Bounds range     [5e+00, 9e+07]
  RHS range        [1e+00, 5e+07]
Warning: Model contains large matrix coefficient range
         Consider reformulating model or setting NumericFocus parameter
         to avoid numerical issues.
LP warm-start: use basis
Iteration    Objective       Primal Inf.    Dual Inf.      Time
       0   -6.0588065e+06   1.806788e+07   0.000000e+00      0s
    3687    3.5186649e+06   0.000000e+00   0.000000e+00      0s

Solved in 3687 iterations and 0.43 seconds (0.99 work units)
Optimal objective  3.518664904e+06
